0 484.29 110.0
1 487.14 110.0
2 490.0 110.0
3 490.0 112.86
4 490.0 115.71
5 490.0 118.57
6 490.0 121.43
7 490.0 124.29
8 490.0 127.14
9 490.0 130.0
10 487.14 130.0
11 484.29 130.0
12 481.43 130.0
13 478.57 130.0
14 475.71 130.0
15 472.86 130.0
16 470.0 130.0
17 465.0 130.0
18 460.0 130.0
19 455.0 130.0
20 450.0 130.0
21 445.0 130.0
22 440.0 130.0
23 435.0 130.0
24 430.0 130.0
25 425.0 130.0
26 420.0 130.0
27 415.0 130.0
28 410.0 130.0
29 405.0 130.0
30 400.0 130.0
31 395.0 130.0
32 390.0 130.0
33 385.0 130.0
34 380.0 130.0
35 375.0 130.0
36 370.0 130.0
37 365.0 130.0
38 360.0 130.0
39 355.0 130.0
40 350.0 130.0
41 345.0 130.0
42 340.0 130.0
43 335.0 130.0
44 330.0 130.0
45 325.0 130.0
46 320.0 130.0
47 315.0 130.0
48 310.0 130.0
49 307.14 130.0
50 304.29 130.0
51 301.43 130.0
52 298.57 130.0
53 295.71 130.0
54 292.86 130.0
55 290.0 130.0
56 290.0 132.86
57 290.0 135.71
58 290.0 138.57
59 290.0 141.43
60 290.0 144.29
61 290.0 147.14
62 290.0 150.0
63 292.86 150.0
64 295.71 150.0
65 298.57 150.0
66 301.43 150.0
67 304.29 150.0
68 307.14 150.0
69 310.0 150.0
70 315.0 150.0
71 320.0 150.0
72 325.0 150.0
73 330.0 150.0
74 335.0 150.0
75 340.0 150.0
76 345.0 150.0
77 350.0 150.0
78 355.0 150.0
79 360.0 150.0
80 365.0 150.0
81 370.0 150.0
82 375.0 150.0
83 380.0 150.0
84 385.0 150.0
85 390.0 150.0
86 395.0 150.0
87 400.0 150.0
88 405.0 150.0
89 410.0 150.0
90 415.0 150.0
91 420.0 150.0
92 425.0 150.0
93 430.0 150.0
94 435.0 150.0
95 440.0 150.0
96 445.0 150.0
97 450.0 150.0
98 455.0 150.0
99 460.0 150.0
100 465.0 150.0
101 470.0 150.0
102 475.0 150.0
103 480.0 150.0
104 485.0 150.0
105 490.0 150.0
106 492.86 150.0
107 495.71 150.0
108 498.57 150.0
109 501.43 150.0
110 504.29 150.0
111 507.14 150.0
112 510.0 150.0
113 510.0 147.14
114 510.0 144.29
115 510.0 141.43
116 510.0 138.57
117 510.0 135.71
118 510.0 132.86
119 510.0 130.0
120 510.0 125.0
121 510.0 120.0
122 510.0 115.0
123 510.0 110.0
124 510.0 107.14
125 510.0 104.29
126 510.0 101.43
127 510.0 98.57
128 510.0 95.71
129 510.0 92.86
130 510.0 90.0
131 507.14 90.0
132 504.29 90.0
133 501.43 90.0
134 498.57 90.0
135 495.71 90.0
136 492.86 90.0
137 490.0 90.0
138 485.0 90.0
139 480.0 90.0
140 475.0 90.0
141 470.0 90.0
142 465.0 90.0
143 460.0 90.0
144 455.0 90.0
145 450.0 90.0
146 445.0 90.0
147 440.0 90.0
148 435.0 90.0
149 430.0 90.0
150 425.0 90.0
151 420.0 90.0
152 415.0 90.0
153 410.0 90.0
154 405.0 90.0
155 400.0 90.0
156 395.0 90.0
157 390.0 90.0
158 385.0 90.0
159 380.0 90.0
160 375.0 90.0
161 370.0 90.0
162 365.0 90.0
163 360.0 90.0
164 355.0 90.0
165 350.0 90.0
166 345.0 90.0
167 340.0 90.0
168 335.0 90.0
169 330.0 90.0
170 325.0 90.0
171 320.0 90.0
172 315.0 90.0
173 310.0 90.0
174 305.0 90.0
175 300.0 90.0
176 295.0 90.0
177 290.0 90.0
178 285.0 90.0
179 280.0 90.0
180 275.0 90.0
181 270.0 90.0
182 250.0 90.0
183 250.0 90.0
184 245.0 90.0
185 240.0 90.0
186 235.0 90.0
187 230.0 90.0
188 225.0 90.0
189 220.0 90.0
190 215.0 90.0
191 210.0 90.0
192 205.0 90.0
193 200.0 90.0
194 195.0 90.0
195 190.0 90.0
196 185.0 90.0
197 180.0 90.0
198 175.0 90.0
199 170.0 90.0
200 165.0 90.0
201 160.0 90.0
202 155.0 90.0
203 150.0 90.0
204 145.0 90.0
205 140.0 90.0
206 135.0 90.0
207 130.0 90.0
208 125.0 90.0
209 120.0 90.0
210 115.0 90.0
211 110.0 90.0
212 105.0 90.0
213 100.0 90.0
214 95.0 90.0
215 90.0 90.0
216 85.0 90.0
217 80.0 90.0
218 75.0 90.0
219 70.0 90.0
220 65.0 90.0
221 60.0 90.0
222 55.0 90.0
223 50.0 90.0
224 45.0 90.0
225 40.0 90.0
226 35.0 90.0
227 30.0 90.0
228 27.14 90.0
229 24.29 90.0
230 21.43 90.0
231 18.57 90.0
232 15.71 90.0
233 12.86 90.0
234 10.0 90.0
235 10.0 92.86
236 10.0 95.71
237 10.0 98.57
238 10.0 101.43
239 10.0 104.29
240 10.0 107.14
241 10.0 110.0
242 12.86 110.0
243 15.71 110.0
244 18.57 110.0
245 21.43 110.0
246 24.29 110.0
247 27.14 110.0
248 30.0 110.0
249 35.0 110.0
250 40.0 110.0
251 45.0 110.0
252 50.0 110.0
253 55.0 110.0
254 60.0 110.0
255 65.0 110.0
256 70.0 110.0
257 75.0 110.0
258 80.0 110.0
259 85.0 110.0
260 90.0 110.0
261 95.0 110.0
262 100.0 110.0
263 105.0 110.0
264 110.0 110.0
265 115.0 110.0
266 120.0 110.0
267 125.0 110.0
268 130.0 110.0
269 135.0 110.0
270 140.0 110.0
271 145.0 110.0
272 150.0 110.0
273 155.0 110.0
274 160.0 110.0
275 165.0 110.0
276 170.0 110.0
277 175.0 110.0
278 180.0 110.0
279 185.0 110.0
280 190.0 110.0
281 195.0 110.0
282 200.0 110.0
283 205.0 110.0
284 210.0 110.0
285 215.0 110.0
286 220.0 110.0
287 225.0 110.0
288 230.0 110.0
289 235.0 110.0
290 240.0 110.0
291 245.0 110.0
292 250.0 110.0
293 255.0 110.0
294 260.0 110.0
295 265.0 110.0
296 270.0 110.0
297 275.0 110.0
298 280.0 110.0
299 285.0 110.0
300 290.0 110.0
301 295.0 110.0
302 300.0 110.0
303 305.0 110.0
304 310.0 110.0
305 315.0 110.0
306 320.0 110.0
307 325.0 110.0
308 330.0 110.0
309 335.0 110.0
310 340.0 110.0
311 345.0 110.0
312 350.0 110.0
313 355.0 110.0
314 360.0 110.0
315 365.0 110.0
316 370.0 110.0
317 375.0 110.0
318 380.0 110.0
319 385.0 110.0
320 390.0 110.0
321 395.0 110.0
322 400.0 110.0
323 405.0 110.0
324 410.0 110.0
325 415.0 110.0
326 420.0 110.0
327 425.0 110.0
328 430.0 110.0
329 435.0 110.0
330 440.0 110.0
331 445.0 110.0
332 450.0 110.0
333 455.0 110.0
334 460.0 110.0
335 465.0 110.0
336 470.0 110.0
337 472.86 110.0
338 475.71 110.0
339 478.57 110.0
0 481.43 110.0
